data/cvrplib_xml100/instances/XML175_1311_01.vrp
NAME : XML175_1311_01
COMMENT : Generated as the XML100 dataset from the CVRPLIB
TYPE : CVRP
DIMENSION : 176
EDGE_WEIGHT_TYPE : EUC_2D
CAPACITY : 4
NODE_COORD_SECTION
1    821  782 
2    520  110 
3    771  803 
4    499  29  
5    900  846 
6    828  931 
7    64   261 
8    746  852 
9    592  403 
10   915  874 
11   483  667 
12   818  852 
13   239  497 
14   879  793 
15   975  867 
16   248  761 
17   711  869 
18   26   529 
19   1    288 
20   603  873 
21   738  996 
22   432  519 
23   665  554 
24   788  887 
25   30   480 
26   810  881 
27   533  860 
28   402  379 
29   426  857 
30   629  607 
31   925  983 
32   914  855 
33   767  872 
34   644  741 
35   340  917 
36   712  456 
37   424  680 
38   886  807 
39   801  966 
40   21   230 
41   743  29  
42   69   223 
43   22   26  
44   797  959 
45   35   491 
46   690  755 
47   954  650 
48   5    392 
49   797  167 
50   791  880 
51   988  657 
52   561  903 
53   720  868 
54   517  402 
55   272  738 
56   812  996 
57   880  303 
58   177  375 
59   101  416 
60   791  859 
61   39   395 
62   686  194 
63   73   268 
64   822  916 
65   605  967 
66   662  174 
67   806  894 
68   817  931 
69   20   358 
70   840  977 
71   104  923 
72   39   456 
73   63   384 
74   948  22  
75   772  851 
76   938  569 
77   980  746 
78   818  765 
79   24   376 
80   866  963 
81   891  964 
82   17   379 
83   61   357 
84   44   315 
85   123  760 
86   40   416 
87   860  828 
88   821  925 
89   799  977 
90   31   379 
91   954  875 
92   449  679 
93   819  877 
94   561  623 
95   880  561 
96   470  931 
97   310  290 
98   821  879 
99   353  236 
100  775  801 
101  865  858 
102  702  221 
103  785  2   
104  858  968 
105  802  877 
106  924  993 
107  438  543 
108  849  785 
109  952  852 
110  944  657 
111  172  514 
112  325  31  
113  9    961 
114  728  999 
115  232  12  
116  12   301 
117  961  507 
118  816  413 
119  74   390 
120  102  190 
121  622  780 
122  275  675 
123  958  990 
124  591  361 
125  728  512 
126  719  794 
127  17   463 
128  399  443 
129  388  807 
130  763  961 
131  831  986 
132  383  88  
133  903  511 
134  746  961 
135  702  912 
136  237  414 
137  694  764 
138  829  964 
139  214  96  
140  501  750 
141  12   385 
142  693  224 
143  902  390 
144  601  996 
145  16   350 
146  31   446 
147  992  432 
148  49   396 
149  927  825 
150  154  295 
151  972  938 
152  797  878 
153  779  460 
154  552  942 
155  145  421 
156  811  867 
157  777  841 
158  821  234 
159  975  296 
160  526  352 
161  105  435 
162  115  393 
163  29   395 
164  787  876 
165  782  448 
166  899  870 
167  56   332 
168  772  991 
169  120  507 
170  540  227 
171  566  238 
172  779  470 
173  42   335 
174  789  204 
175  199  407 
176  849  932 
DEMAND_SECTION
1    0   
2    1   
3    1   
4    1   
5    1   
6    1   
7    1   
8    1   
9    1   
10   1   
11   1   
12   1   
13   1   
14   1   
15   1   
16   1   
17   1   
18   1   
19   1   
20   1   
21   1   
22   1   
23   1   
24   1   
25   1   
26   1   
27   1   
28   1   
29   1   
30   1   
31   1   
32   1   
33   1   
34   1   
35   1   
36   1   
37   1   
38   1   
39   1   
40   1   
41   1   
42   1   
43   1   
44   1   
45   1   
46   1   
47   1   
48   1   
49   1   
50   1   
51   1   
52   1   
53   1   
54   1   
55   1   
56   1   
57   1   
58   1   
59   1   
60   1   
61   1   
62   1   
63   1   
64   1   
65   1   
66   1   
67   1   
68   1   
69   1   
70   1   
71   1   
72   1   
73   1   
74   1   
75   1   
76   1   
77   1   
78   1   
79   1   
80   1   
81   1   
82   1   
83   1   
84   1   
85   1   
86   1   
87   1   
88   1   
89   1   
90   1   
91   1   
92   1   
93   1   
94   1   
95   1   
96   1   
97   1   
98   1   
99   1   
100  1   
101  1   
102  1   
103  1   
104  1   
105  1   
106  1   
107  1   
108  1   
109  1   
110  1   
111  1   
112  1   
113  1   
114  1   
115  1   
116  1   
117  1   
118  1   
119  1   
120  1   
121  1   
122  1   
123  1   
124  1   
125  1   
126  1   
127  1   
128  1   
129  1   
130  1   
131  1   
132  1   
133  1   
134  1   
135  1   
136  1   
137  1   
138  1   
139  1   
140  1   
141  1   
142  1   
143  1   
144  1   
145  1   
146  1   
147  1   
148  1   
149  1   
150  1   
151  1   
152  1   
153  1   
154  1   
155  1   
156  1   
157  1   
158  1   
159  1   
160  1   
161  1   
162  1   
163  1   
164  1   
165  1   
166  1   
167  1   
168  1   
169  1   
170  1   
171  1   
172  1   
173  1   
174  1   
175  1   
176  1   
DEPOT_SECTION
1
-1
EOF
