data/cvrplib_xml100/solutions/XML175_1311_01.sol
Route #1: 128 15 54 121
Route #2: 125 136 33 45
Route #3: 91 36 139 120
Route #4: 110 168 44 17
Route #5: 71 145 126 24
Route #6: 81 140 47 162
Route #7: 118 147 60 85
Route #8: 160 58 161 154
Route #9: 89 78 68 144
Route #10: 166 172 82 72
Route #11: 10 106 21 93
Route #12: 135 57 174 12
Route #13: 83 115 18 39
Route #14: 62 6 41 149
Route #15: 27 98 96 127
Route #16: 138 114 42 119
Route #17: 53 159 123 8
Route #18: 29 22 35 124
Route #19: 1 3 111 131
Route #20: 170 169 65 61
Route #21: 157 173 101 141
Route #22: 117 164 152 171
Route #23: 48 40 102 73
Route #24: 146 158 56 142
Route #25: 75 116 132 94
Route #26: 76 50 46 109
Route #27: 86 37 13 107
Route #28: 148 108 14 90
Route #29: 165 9 31 4
Route #30: 30 105 122 150
Route #31: 80 79 103 175
Route #32: 100 97 92 11
Route #33: 55 130 69 137
Route #34: 63 87 67 5
Route #35: 155 25 66 104
Route #36: 167 88 38 43
Route #37: 163 23 49 151
Route #38: 129 20 113 133
Route #39: 59 32 74 156
Route #40: 52 16 134 7
Route #41: 19 153 143 64
Route #42: 26 28 95 51
Route #43: 77 2 99
Route #44: 34 70 112 84
Cost 44406
